Traveling Salesman Problem/TSP_generados/Aleatorio1621103387_13.tsp
NAME: Aleatorio1621103387_13.tsp
COMMENT: Randomly generated scenario
TYPE: TSP
DIMENSION: 13
EDGE_WEIGHT_TYPE: ATT
NODE_COORD_SECTION
1 25.08 33.43
2 12.63 29.34
3 7.21 46.02
4 13.87 5.82
5 5.3 14.62
6 49.9 25.71
7 3.72 24.08
8 41.48 3.13
9 14.2 6.29
10 31.55 22.5
11 17.99 12.0
12 40.78 31.52
13 47.81 5.11
