Traveling Salesman Problem/TSP_generados/Aleatorio1621103387_13.opt.tour
NAME: Aleatorio1621103387_13.opt.tour
COMMENT: Optimal solution for Aleatorio1621103387_13 (167.91460873323777)
TYPE: TOUR
DIMENSION: 13
TOUR_SECTION
1 10 12 6 13 8 11 9 4 5 7 2 3
-1
EOF
